RT is False
Default write of storage_offers_DA.csv just to have a file (but constraint should be inactive)
Reading model...
...model read.
creating competitive generators file...
...competitive generators recorded.
Loading data...
.. day-ahead data with real-time VRE data read.
Compiling instance...
...instance created.
Creating Offer Mitigation (model will solve as dispatch if TRUE)...
NOTE: storage offers will not be mitigated
...storage offer mitigation file created
Converting model to MPEC...
...converted
NOTE: initial MIP solve with only storage competitive to get feasible solution
Solving...

Welcome to IBM(R) ILOG(R) CPLEX(R) Interactive Optimizer 12.8.0.0
  with Simplex, Mixed Integer & Barrier Optimizers
5725-A06 5725-A29 5724-Y48 5724-Y49 5724-Y54 5724-Y55 5655-Y21
Copyright IBM Corp. 1988, 2017.  All Rights Reserved.

Type 'help' for a list of available commands.
Type 'help' followed by a command name for more
information on commands.

CPLEX> Logfile 'cplex.log' closed.
Logfile 'C:\Users\llavi\Desktop\test919\logs\tmpaqgtmnxl.cplex.log' open.
CPLEX> New value for parallel optimization mode: -1
CPLEX> New value for mixed integer optimality gap tolerance: 0.01
CPLEX> New value for integrality tolerance: 1e-09
CPLEX> New value for feasibility tolerance: 0.01
CPLEX> New value for deterministic time limit in ticks: 75000
CPLEX> Problem 'C:\Users\llavi\Desktop\test919\logs\tmpy0l8ru2o.pyomo.lp' read.
Read time = 0.28 sec. (13.50 ticks)
CPLEX> Problem name         : C:\Users\llavi\Desktop\test919\logs\tmpy0l8ru2o.pyomo.lp
Objective sense      : Maximize
Variables            :   54021  [Nneg: 1,  Box: 22008,  Free: 4464,
                                 Binary: 27548]
Objective nonzeros   :    8980
Linear constraints   :  123829  [Less: 41554,  Greater: 59512,  Equal: 22763]
  Nonzeros           :  300593
  RHS nonzeros       :   67901

Variables            : Min LB: -5000.000        Max UB: 1000000.       
Objective nonzeros   : Min   : 0.5583333        Max   : 722.0000       
Linear constraints   :
  Nonzeros           : Min   : 0.001000000      Max   : 1000000.       
  RHS nonzeros       : Min   : 0.5583333        Max   : 1000000.       
CPLEX> CPXPARAM_Simplex_Tolerances_Feasibility          0.01
CPXPARAM_Parallel                                -1
CPXPARAM_DetTimeLimit                            75000
CPXPARAM_MIP_Tolerances_MIPGap                   0.01
CPXPARAM_MIP_Tolerances_Integrality              1.0000000000000001e-09
Tried aggregator 3 times.
MIP Presolve eliminated 89269 rows and 19161 columns.
MIP Presolve added 3403 rows and 0 columns.
MIP Presolve modified 23898 coefficients.
Aggregator did 13071 substitutions.
Reduced MIP has 24892 rows, 21233 columns, and 71040 nonzeros.
Reduced MIP has 8407 binaries, 0 generals, 0 SOSs, and 0 indicators.
Presolve time = 0.33 sec. (170.02 ticks)
Probing fixed 410 vars, tightened 2808 bounds.
Probing time = 3.25 sec. (880.39 ticks)
Tried aggregator 2 times.
MIP Presolve eliminated 925 rows and 821 columns.
MIP Presolve modified 2190 coefficients.
Aggregator did 29 substitutions.
Reduced MIP has 23938 rows, 20383 columns, and 68277 nonzeros.
Reduced MIP has 7997 binaries, 0 generals, 0 SOSs, and 0 indicators.
Presolve time = 0.13 sec. (55.57 ticks)
Probing time = 0.05 sec. (15.86 ticks)
Clique table members: 6360.
MIP emphasis: balance optimality and feasibility.
MIP search method: dynamic search.
Parallel mode: opportunistic, using up to 4 threads.
Root relaxation solution time = 0.61 sec. (476.17 ticks)

        Nodes                                         Cuts/
   Node  Left     Objective  IInf  Best Integer    Best Bound    ItCnt     Gap

      0     0     7906.5573   788                   7906.5573     3538         
      0     0     7906.5573    12                    Cuts: 12     3543         
      0     0     7906.5573    12                     Cuts: 5     3544         
      0     2    infeasible                           Cuts: 4     3650         
Elapsed time = 16.23 sec. (5200.07 ticks, tree = 0.01 MB, solutions = 0)
*    43+   22                         6154.7787     7879.4528            28.02%
*    52    21      integral     0     7873.2360     7879.4528     4345    0.08%

Implied bound cuts applied:  3
Flow cuts applied:  5
Mixed integer rounding cuts applied:  1
Gomory fractional cuts applied:  5

Root node processing (before b&c):
  Real time             =   16.00 sec. (5186.00 ticks)
Parallel b&c, 4 threads:
  Real time             =    0.73 sec. (292.22 ticks)
  Sync time (average)   =    0.14 sec.
  Wait time (average)   =    0.02 sec.
                          ------------
Total (root+branch&cut) =   16.73 sec. (5478.21 ticks)

Solution pool: 2 solutions saved.

MIP - Integer optimal, tolerance (0.01/1e-06):  Objective =  7.8732360286e+03
Current MIP best bound =  7.8794527865e+03 (gap = 6.21676, 0.08%)
Solution time =   16.75 sec.  Iterations = 4801  Nodes = 76 (26)
Deterministic time = 5478.37 ticks  (327.07 ticks/sec)

CPLEX> Incumbent solution written to file 'C:\Users\llavi\Desktop\test919\logs\tmpsh3sz4a0.cplex.sol'.
CPLEX> NOTE: no warmstart specified for MIP iteration, default behavior is true
NOTE: resolving with all competitive generators using storage-only solution to warmstart
Solving...

Welcome to IBM(R) ILOG(R) CPLEX(R) Interactive Optimizer 12.8.0.0
  with Simplex, Mixed Integer & Barrier Optimizers
5725-A06 5725-A29 5724-Y48 5724-Y49 5724-Y54 5724-Y55 5655-Y21
Copyright IBM Corp. 1988, 2017.  All Rights Reserved.

Type 'help' for a list of available commands.
Type 'help' followed by a command name for more
information on commands.

CPLEX> Logfile 'cplex.log' closed.
Logfile 'C:\Users\llavi\Desktop\test919\logs\tmprvkgf52h.cplex.log' open.
CPLEX> New value for parallel optimization mode: -1
CPLEX> New value for mixed integer optimality gap tolerance: 0.01
CPLEX> New value for integrality tolerance: 1e-09
CPLEX> New value for feasibility tolerance: 0.01
CPLEX> New value for deterministic time limit in ticks: 75000
CPLEX> Problem 'C:\Users\llavi\Desktop\test919\logs\tmp8lfhk4_p.pyomo.lp' read.
Read time = 0.33 sec. (13.52 ticks)
CPLEX> MIP start file 'C:\Users\llavi\Desktop\test919\logs\tmp01793m2j.cplex.mst' read.
CPLEX> Problem name         : C:\Users\llavi\Desktop\test919\logs\tmp8lfhk4_p.pyomo.lp
Objective sense      : Maximize
Variables            :   54741  [Nneg: 1,  Box: 22728,  Free: 4464,
                                 Binary: 27548]
Objective nonzeros   :    9700
Linear constraints   :  123829  [Less: 41554,  Greater: 59512,  Equal: 22763]
  Nonzeros           :  300593
  RHS nonzeros       :   67901

Variables            : Min LB: -5000.000        Max UB: 1000000.       
Objective nonzeros   : Min   : 0.5583333        Max   : 722.0000       
Linear constraints   :
  Nonzeros           : Min   : 0.001000000      Max   : 1000000.       
  RHS nonzeros       : Min   : 0.5583333        Max   : 1000000.       
CPLEX> CPXPARAM_Simplex_Tolerances_Feasibility          0.01
CPXPARAM_Parallel                                -1
CPXPARAM_DetTimeLimit                            75000
CPXPARAM_MIP_Tolerances_MIPGap                   0.01
CPXPARAM_MIP_Tolerances_Integrality              1.0000000000000001e-09
Warning:  No solution found from 1 MIP starts.
Retaining values of one MIP start for possible repair.
Tried aggregator 3 times.
MIP Presolve eliminated 89269 rows and 19881 columns.
MIP Presolve added 3403 rows and 0 columns.
MIP Presolve modified 23898 coefficients.
Aggregator did 13071 substitutions.
Reduced MIP has 24892 rows, 21233 columns, and 71040 nonzeros.
Reduced MIP has 8407 binaries, 0 generals, 0 SOSs, and 0 indicators.
Presolve time = 0.36 sec. (170.39 ticks)
Probing fixed 410 vars, tightened 2808 bounds.
Probing time = 3.34 sec. (880.39 ticks)
Tried aggregator 2 times.
MIP Presolve eliminated 925 rows and 821 columns.
MIP Presolve modified 2190 coefficients.
Aggregator did 29 substitutions.
Reduced MIP has 23938 rows, 20383 columns, and 68277 nonzeros.
Reduced MIP has 7997 binaries, 0 generals, 0 SOSs, and 0 indicators.
Presolve time = 0.13 sec. (55.56 ticks)
Probing time = 0.09 sec. (15.86 ticks)
Clique table members: 6360.
MIP emphasis: balance optimality and feasibility.
MIP search method: dynamic search.
Parallel mode: opportunistic, using up to 4 threads.
Root relaxation solution time = 0.63 sec. (483.36 ticks)

        Nodes                                         Cuts/
   Node  Left     Objective  IInf  Best Integer    Best Bound    ItCnt     Gap

      0     0     7906.5573   798                   7906.5573     3616         
      0     0     7906.5573     8                     Cuts: 7     3620         
      0     0     7906.5573     6                     Cuts: 4     3623         
Repair heuristic found nothing.
      0     3    infeasible                         7879.4528     3654         
Elapsed time = 23.70 sec. (7967.98 ticks, tree = 0.01 MB, solutions = 0)
*    45+   20                        -9402.5864     7879.4528           183.80%
     95    16        cutoff           6154.7787     7879.4528     4373   28.02%
    125    11        cutoff           6154.7787     7879.4528     4450   28.02%
    158    19     7878.6862     2     6154.7787     7879.4528     4657   28.02%
    200    20        cutoff           6154.7787     7879.4528     4758   28.02%
    226    17     6562.0149     1     6154.7787     7879.4528     4625   28.02%
    253    36     7022.0634     2     6154.7787     7879.4528     4893   28.02%
    274    44        cutoff           6154.7787     7879.4528     4940   28.02%
    300    44        cutoff           6154.7787     7879.4528     4967   28.02%
    343    48     7879.4528     2     6154.7787     7879.4528     4984   28.02%
Elapsed time = 28.44 sec. (11151.18 ticks, tree = 0.17 MB, solutions = 2)
    377    49     6562.0149     1     6154.7787     7879.4528     4999   28.02%
    412    54     7879.4528     2     6154.7787     7879.4528     5019   28.02%
    440    54     6562.0149     1     6154.7787     7879.4528     5028   28.02%
    468    60        cutoff           6154.7787     7879.4528     5057   28.02%
    492    64     7879.4528     2     6154.7787     7879.4528     5077   28.02%
    514    67        cutoff           6154.7787     7879.4528     5093   28.02%
    536    70     7879.4528     2     6154.7787     7879.4528     5102   28.02%
    558    70     6562.0149     1     6154.7787     7879.4528     5115   28.02%
    580    74     6562.0149     1     6154.7787     7879.4528     5133   28.02%
    600    76     6562.0149     1     6154.7787     7879.4528     5140   28.02%
Elapsed time = 39.70 sec. (21058.56 ticks, tree = 0.30 MB, solutions = 2)
    620    86     7879.4528     2     6154.7787     7879.4528     5169   28.02%
    640    87     6562.0149     1     6154.7787     7879.4528     5183   28.02%
    661    88     6562.0149     1     6154.7787     7879.4528     5189   28.02%
    676    93     7879.4528     2     6154.7787     7879.4528     5200   28.02%
    695    97     6562.0149     1     6154.7787     7879.4528     5222   28.02%
    712    99     7879.4528     2     6154.7787     7879.4528     5231   28.02%
    730   106     7879.4528     1     6154.7787     7879.4528     5259   28.02%
    752   107     6562.0149     1     6154.7787     7879.4528     5266   28.02%
    765   107     6562.0149     1     6154.7787     7879.4528     5268   28.02%
    781   111     6562.0149     1     6154.7787     7879.4528     5289   28.02%
Elapsed time = 53.78 sec. (32024.99 ticks, tree = 0.43 MB, solutions = 2)
    797   117        cutoff           6154.7787     7879.4528     5317   28.02%
    813   117        cutoff           6154.7787     7879.4528     5319   28.02%
    821   118     6562.0149     1     6154.7787     7879.4528     5320   28.02%
    834   124     6562.0149     1     6154.7787     7879.4528     5354   28.02%
    867   124     6562.0149     1     6154.7787     7879.4528     5356   28.02%
    882   126     6562.0149     1     6154.7787     7879.4528     5371   28.02%
    893   126     6562.0149     1     6154.7787     7879.4528     5372   28.02%
    905   144     6562.0149     1     6154.7787     7879.4528     5609   28.02%
    919   147     7879.4528     2     6154.7787     7879.4528     5621   28.02%
    934   150    infeasible           6154.7787     7879.4528     5658   28.02%
Elapsed time = 66.86 sec. (42254.11 ticks, tree = 0.54 MB, solutions = 2)
*   954   151      integral     0     7872.8484     7879.4528     5690    0.08%
    959   152     7879.4528     2     7872.8484     7879.4528     5661    0.08%

Implied bound cuts applied:  1
Flow cuts applied:  11
Gomory fractional cuts applied:  6

Root node processing (before b&c):
  Real time             =   23.41 sec. (7965.45 ticks)
Parallel b&c, 4 threads:
  Real time             =   44.89 sec. (36204.52 ticks)
  Sync time (average)   =    0.23 sec.
  Wait time (average)   =    0.01 sec.
                          ------------
Total (root+branch&cut) =   68.30 sec. (44169.97 ticks)

Solution pool: 3 solutions saved.

MIP - Integer optimal, tolerance (0.01/1e-06):  Objective =  7.8728484040e+03
Current MIP best bound =  7.8794527865e+03 (gap = 6.60438, 0.08%)
Solution time =   68.30 sec.  Iterations = 5708  Nodes = 960 (101)
Deterministic time = 44170.13 ticks  (646.74 ticks/sec)

CPLEX> Incumbent solution written to file 'C:\Users\llavi\Desktop\test919\logs\tmpwzv1riz8.cplex.sol'.
CPLEX> Exporting results... 
